sat
(:added-eqs                   16940
 :arith-bound-propagations-lp 51276
 :arith-conflicts             931
 :arith-fixed-eqs             4607
 :arith-lower                 72047
 :arith-make-feasible         32292
 :arith-max-columns           870
 :arith-max-rows              441
 :arith-offset-eqs            12437
 :arith-upper                 60612
 :binary-propagations         91583
 :conflicts                   1237
 :decisions                   21531
 :del-clause                  99
 :final-checks                1
 :max-memory                  32.12
 :memory                      21.02
 :minimized-lits              3298
 :mk-bool-var                 3799
 :mk-clause                   1960
 :mk-clause-binary            5329
 :num-allocs                  70018787
 :num-checks                  1
 :propagations                112552
 :restarts                    4
 :rlimit-count                2163180
 :solve-eqs-elim-vars         355
 :solve-eqs-steps             2203
 :time                        1.19
 :total-time                  1.21)
